NewResults/tsp10.1
 10
-1  2  3 55  6 44 33 34  4 55 
 5 -1 11 21 12 14 11 12 10 19
34 -1 -1 22 22 34 41 12 60  9
24  2 11 -1 82 84 21 12 16 19
 4  3 21 13 -1 34 43 12 15 29
14  5 20 53 82 -1 41 12 50 19
 4 11 66 63 92 30 -1 22 12 39
22 32 12 73 22 34 41 -1 14 49
24 12 16 13 22 20 20 22 -1 39
54 15 66 53 52 35 10 42 42 -1
 
