NewResults/tsp10.1.sol
Recorrido: <0,4> <1,5> <2,9> <3,2> <4,1> <5,7> <6,0> <7,8> <8,3> <9,6> 
Coste(ci): 96
Tiempo de ejecución: 0.000427 

